tsp_instances/TSP50/instance17.tsp
NODE_COORD_SECTION
0 5 66
1 101 194
2 81 23
3 27 48
4 159 39
5 192 167
6 161 24
7 199 92
8 163 23
9 1 69
10 172 200
11 192 129
12 91 75
13 78 124
14 79 95
15 140 90
16 176 62
17 32 81
18 14 70
19 137 131
20 69 71
21 32 179
22 154 69
23 69 91
24 167 38
25 140 194
26 186 140
27 85 16
28 59 115
29 198 153
30 188 87
31 21 69
32 185 13
33 168 135
34 81 36
35 33 131
36 49 55
37 150 43
38 82 44
39 107 118
40 148 148
41 27 187
42 170 169
43 10 105
44 80 98
45 122 167
46 185 44
47 49 143
48 175 178
49 63 134
