tsp_instances/TSP50/instance17.opt.tour
TOUR_SECTION
1
4
37
3
28
35
39
21
24
15
45
13
16
23
38
5
25
7
9
33
47
17
31
8
12
34
27
30
6
43
49
11
26
2
46
41
20
40
14
29
50
48
22
42
36
44
18
32
19
10
-1